results/res_prop_muc/res_Cimatti_mathsat_cores/QF_RDL/fischer3-mutex-6.smt.smt2.res
unsat
( c1006
  c1008
  c1017
  c102
  c1026
  c1038
  c1041
  c1044
  c1045
  c1046
  c1048
  c1049
  c1059
  c1068
  c1078
  c108
  c1087
  c1089
  c109
  c1099
  c110
  c1111
  c1112
  c1114
  c1117
  c1118
  c1119
  c112
  c1120
  c1122
  c113
  c1132
  c1141
  c1151
  c1160
  c1162
  c1172
  c1184
  c1185
  c1187
  c1190
  c1191
  c1192
  c1193
  c1195
  c1204
  c1205
  c1212
  c122
  c1220
  c1224
  c1228
  c123
  c1232
  c1262
  c1263
  c1264
  c1265
  c1267
  c1271
  c1275
  c1279
  c1283
  c1287
  c1289
  c1299
  c1309
  c1318
  c1329
  c1333
  c1338
  c1350
  c1351
  c1353
  c1356
  c1357
  c1358
  c136
  c1360
  c1361
  c1370
  c1380
  c1390
  c1399
  c14
  c1411
  c142
  c1423
  c1424
  c1426
  c1429
  c143
  c1430
  c1431
  c1433
  c1434
  c144
  c1443
  c1453
  c1463
  c1472
  c148
  c1484
  c1496
  c1497
  c1499
  c15
  c1502
  c1503
  c1504
  c1506
  c1507
  c1516
  c1517
  c1524
  c1528
  c1532
  c1536
  c154
  c1540
  c1544
  c1574
  c1575
  c1576
  c1577
  c1578
  c1579
  c1583
  c16
  c1602
  c161
  c1612
  c1622
  c1632
  c1650
  c1659
  c1668
  c167
  c1683
  c1693
  c17
  c1703
  c1713
  c1723
  c1732
  c1741
  c175
  c1756
  c1766
  c1776
  c1786
  c1796
  c18
  c1805
  c181
  c1814
  c182
  c1828
  c183
  c1836
  c1840
  c1844
  c1848
  c185
  c1852
  c1856
  c186
  c1886
  c1887
  c1888
  c1889
  c1890
  c1891
  c1895
  c1897
  c19
  c1901
  c1905
  c1908
  c1912
  c1916
  c1921
  c1925
  c1929
  c1933
  c1937
  c1941
  c1944
  c1945
  c1948
  c1949
  c195
  c1952
  c1953
  c1956
  c1957
  c196
  c1960
  c1961
  c1964
  c1965
  c1968
  c1969
  c1971
  c1972
  c1977
  c1978
  c1979
  c1980
  c1981
  c1983
  c1990
  c20
  c209
  c21
  c215
  c216
  c217
  c22
  c221
  c227
  c23
  c233
  c239
  c248
  c254
  c255
  c256
  c258
  c259
  c268
  c27
  c276
  c280
  c284
  c288
  c292
  c296
  c31
  c326
  c327
  c328
  c329
  c330
  c331
  c339
  c343
  c347
  c35
  c351
  c353
  c354
  c363
  c366
  c373
  c374
  c385
  c387
  c388
  c39
  c393
  c397
  c400
  c404
  c406
  c41
  c412
  c414
  c42
  c420
  c421
  c422
  c424
  c425
  c435
  c438
  c444
  c448
  c454
  c455
  c466
  c468
  c469
  c477
  c478
  c479
  c485
  c487
  c493
  c494
  c495
  c497
  c498
  c511
  c521
  c527
  c528
  c539
  c54
  c541
  c542
  c546
  c552
  c560
  c566
  c567
  c568
  c569
  c570
  c571
  c580
  c581
  c588
  c592
  c596
  c6
  c600
  c604
  c608
  c61
  c62
  c63
  c638
  c639
  c640
  c641
  c642
  c643
  c647
  c651
  c655
  c659
  c663
  c666
  c67
  c675
  c685
  c697
  c700
  c705
  c714
  c726
  c73
  c732
  c734
  c737
  c747
  c756
  c766
  c775
  c777
  c778
  c781
  c787
  c799
  c805
  c806
  c807
  c81
  c810
  c820
  c829
  c839
  c848
  c85
  c850
  c851
  c853
  c854
  c860
  c872
  c878
  c879
  c880
  c883
  c892
  c893
  c900
  c908
  c916
  c93
  c94
  c951
  c953
  c955
  c963
  c967
  c971
  c975
  c978
  c987
  c999 )
